(declare-const a Real)
(declare-const b Real)
(declare-const c Real)
(assert (= (+ a b c) 3))
(assert (> a 0))
(assert (> b 0))
(assert (> c 0))
(assert (not (<= (* (pow (+ 1 (* (+ (pow (+ a b) 2) (* 2 (pow c 2))) (+ (* (pow 2 (/ 1 2)) (pow (+ (* (pow (+ (pow (+ a c) 2) (* 2 (pow b 2))) -2) (pow (+ a c (* 2 b)) 4)) (* 2 (pow (+ (pow (+ b c) 2) (* 2 (pow a 2))) -2) (pow (+ b c (* 2 a)) 2) (+ (pow (+ b c) 2) (* 4 (pow a 2))))) (/ 1 2))) (* -1 1 8)))) -1) (pow (+ a b (* 2 c) (* (+ (pow (+ a b) 2) (* 2 (pow c 2))) (+ (* (pow 2 (/ 1 2)) (pow (+ (* (pow (+ (pow (+ a c) 2) (* 2 (pow b 2))) -2) (pow (+ a c (* 2 b)) 4)) (* 2 (pow (+ (pow (+ b c) 2) (* 2 (pow a 2))) -2) (pow (+ b c (* 2 a)) 2) (+ (pow (+ b c) 2) (* 4 (pow a 2))))) (/ 1 2))) (* -1 1 8)))) 2)) 0)))
(check-sat)
(get-model)
(exit)